
Gurobi 9.5.1 (linux64) logging started Wed 13 Jul 2022 11:31:24 AM MST

Set parameter LogFile to value "/home/local/ASUAD/kmajd1/NNRepLayer_v2/demos/walking_example/dynamic_constraint/repair_net/logs/opt_log_7_13_2022_11_30_34.log"
Gurobi Optimizer version 9.5.1 build v9.5.1rc2 (linux64)
Thread count: 48 physical cores, 96 logical processors, using up to 32 threads
Optimize a model with 54418 rows, 36942 columns and 865096 nonzeros
Model fingerprint: 0x19d9fcea
Model has 270 quadratic objective terms
Variable types: 19662 continuous, 17280 integer (17280 binary)
Coefficient statistics:
  Matrix range     [1e-04, 3e+02]
  Objective range  [2e-03, 1e+00]
  QObjective range [7e-02, 7e-02]
  Bounds range     [2e-01, 8e+02]
  RHS range        [2e-04, 3e+02]
Presolve removed 1614 rows and 332 columns
Presolve time: 0.10s

Explored 0 nodes (0 simplex iterations) in 0.20 seconds (0.21 work units)
Thread count was 1 (of 96 available processors)

Solution count 0

Model is infeasible
Best objective -, best bound -, gap -
